NAME : ManP-10-0
COMMENT : Pilot. 5 postmen. Max route 2941.15=4999.955m
TYPE : TSP
DIMENSION : 11
VEHICLES : 5
SCALE : 1000
DISTANCE : 4999.955
EDGE_WEIGHT_TYPE : EXPLICIT
EDGE_WEIGHT_FORMAT : UPPER_ROW
EDGE_WEIGHT_SECTION
467.054
952.632
540.971
488.892
624.576
952.426
823.947
866.280
353.730
1263.058

1398.155
991.771
760.393
494.172
898.634
698.177
740.510
568.994
811.589

908.909
1433.114
910.789
1896.648
1768.170
1810.502
1297.952
2202.674

566.366
1156.470
1029.900
901.421
943.754
439.704
1341.192

926.415
468.974
344.459
384.457
197.512
947.663

1064.655
864.199
906.531
735.015
1298.003

205.896
163.564
661.046
1082.261

47.772
477.962
881.805

520.294
924.137

917.076

DEPOT_SECTION
1
-1
EOF
